p cnf 412 698
10 -69 -48 76 0
10 -69 -48 -76 0
-36 -61 1 77 0
-36 -61 1 -77 0
-4 -21 64 78 0
-4 -21 64 -78 0
-51 71 -4 79 0
-51 71 -4 -79 0
65 72 52 80 0
65 72 52 -80 0
39 -14 -20 81 0
39 -14 -20 -81 0
-54 -5 49 82 0
-54 -5 49 -82 0
16 51 36 83 0
16 51 36 -83 0
10 -71 74 84 0
10 -71 74 -84 0
-8 57 19 85 0
-8 57 19 -85 0
10 -56 37 86 0
10 -56 37 -86 0
-17 46 -11 87 0
-17 46 -11 -87 0
-6 -41 -32 88 0
-6 -41 -32 -88 0
-45 -55 -47 89 0
-45 -55 -47 -89 0
66 -1 -21 90 0
66 -1 -21 -90 0
-33 70 20 91 0
-33 70 20 -91 0
75 40 57 92 0
75 40 57 -92 0
67 35 47 93 0
67 35 47 -93 0
-75 45 -71 94 0
-75 45 -71 -94 0
10 4 -65 95 0
10 4 -65 -95 0
69 -46 -44 96 0
69 -46 -44 -96 0
24 -40 -31 97 0
24 -40 -31 -97 0
-11 -42 20 98 0
-11 -42 20 -98 0
-73 64 65 99 0
-73 64 65 -99 0
-57 -44 6 100 0
-57 -44 6 -100 0
-20 68 65 101 0
-20 68 65 -101 0
54 29 -70 102 0
54 29 -70 -102 0
69 45 -10 103 0
69 45 -10 -103 0
32 24 62 104 0
32 24 62 -104 0
24 -73 -65 105 0
24 -73 -65 -105 0
-49 -62 -58 106 0
-49 -62 -58 -106 0
-68 28 -17 107 0
-68 28 -17 -107 0
-31 -30 -20 108 0
-31 -30 -20 -108 0
39 74 70 109 0
39 74 70 -109 0
47 -43 -9 110 0
47 -43 -9 -110 0
26 45 38 111 0
26 45 38 -111 0
71 -75 40 112 0
71 -75 40 -112 0
63 -16 -30 113 0
63 -16 -30 -113 0
-53 -20 69 114 0
-53 -20 69 -114 0
-59 -17 -56 115 0
-59 -17 -56 -115 0
44 3 21 116 0
44 3 21 -116 0
-19 6 28 117 0
-19 6 28 -117 0
58 6 29 118 0
58 6 29 -118 0
8 65 -29 119 0
8 65 -29 -119 0
15 -21 -70 120 0
15 -21 -70 -120 0
-57 70 67 121 0
-57 70 67 -121 0
-6 11 -47 122 0
-6 11 -47 -122 0
-46 -34 14 123 0
-46 -34 14 -123 0
-65 -36 -52 124 0
-65 -36 -52 -124 0
-5 19 -64 125 0
-5 19 -64 -125 0
45 13 -50 126 0
45 13 -50 -126 0
56 -6 65 127 0
56 -6 65 -127 0
13 40 52 128 0
13 40 52 -128 0
49 12 -58 129 0
49 12 -58 -129 0
-74 8 75 130 0
-74 8 75 -130 0
43 52 -45 131 0
43 52 -45 -131 0
-71 69 -51 132 0
-71 69 -51 -132 0
-4 -34 9 133 0
-4 -34 9 -133 0
-3 -33 -43 134 0
-3 -33 -43 -134 0
-42 -56 -52 135 0
-42 -56 -52 -135 0
-73 11 -36 136 0
-73 11 -36 -136 0
-12 23 -42 137 0
-12 23 -42 -137 0
-32 -12 21 138 0
-32 -12 21 -138 0
71 38 56 139 0
71 38 56 -139 0
-75 -59 -64 140 0
-75 -59 -64 -140 0
53 -3 -29 141 0
53 -3 -29 -141 0
27 17 -29 142 0
27 17 -29 -142 0
47 25 39 143 0
47 25 39 -143 0
66 -59 15 144 0
66 -59 15 -144 0
-10 50 26 145 0
-10 50 26 -145 0
31 -20 42 146 0
31 -20 42 -146 0
62 12 36 147 0
62 12 36 -147 0
67 -40 -46 148 0
67 -40 -46 -148 0
64 -60 -50 149 0
64 -60 -50 -149 0
-40 -5 14 150 0
-40 -5 14 -150 0
-4 -13 -50 151 0
-4 -13 -50 -151 0
53 -34 -56 152 0
53 -34 -56 -152 0
35 -46 36 153 0
35 -46 36 -153 0
-71 -64 14 154 0
-71 -64 14 -154 0
10 31 -13 155 0
10 31 -13 -155 0
54 -26 -8 156 0
54 -26 -8 -156 0
-73 -48 -13 157 0
-73 -48 -13 -157 0
50 20 36 158 0
50 20 36 -158 0
-40 -21 24 159 0
-40 -21 24 -159 0
-62 1 -46 160 0
-62 1 -46 -160 0
69 3 18 161 0
69 3 18 -161 0
-56 28 -60 162 0
-56 28 -60 -162 0
59 -56 66 163 0
59 -56 66 -163 0
55 30 36 164 0
55 30 36 -164 0
-19 -69 -28 165 0
-19 -69 -28 -165 0
-56 -62 54 166 0
-56 -62 54 -166 0
-10 44 -37 167 0
-10 44 -37 -167 0
40 -20 24 168 0
40 -20 24 -168 0
46 19 -43 169 0
46 19 -43 -169 0
-33 40 44 170 0
-33 40 44 -170 0
36 10 23 171 0
36 10 23 -171 0
-23 17 54 172 0
-23 17 54 -172 0
-28 51 -34 173 0
-28 51 -34 -173 0
64 -51 15 174 0
64 -51 15 -174 0
-6 -15 2 175 0
-6 -15 2 -175 0
11 -35 -39 176 0
11 -35 -39 -176 0
45 -72 -63 177 0
45 -72 -63 -177 0
-38 -9 -49 178 0
-38 -9 -49 -178 0
68 48 31 179 0
68 48 31 -179 0
-44 -10 27 180 0
-44 -10 27 -180 0
-75 70 60 181 0
-75 70 60 -181 0
-9 72 31 182 0
-9 72 31 -182 0
-70 -57 20 183 0
-70 -57 20 -183 0
-23 -45 -52 184 0
-23 -45 -52 -184 0
66 -21 -65 185 0
66 -21 -65 -185 0
44 65 -43 186 0
44 65 -43 -186 0
62 37 67 187 0
62 37 67 -187 0
-29 -28 -68 188 0
-29 -28 -68 -188 0
52 -19 -15 189 0
52 -19 -15 -189 0
-8 63 12 190 0
-8 63 12 -190 0
46 49 66 191 0
46 49 66 -191 0
-8 64 55 192 0
-8 64 55 -192 0
11 34 40 193 0
11 34 40 -193 0
-49 59 -53 194 0
-49 59 -53 -194 0
-54 20 -37 195 0
-54 20 -37 -195 0
-66 -62 16 196 0
-66 -62 16 -196 0
-75 7 6 197 0
-75 7 6 -197 0
67 16 -45 198 0
67 16 -45 -198 0
-66 -67 -35 199 0
-66 -67 -35 -199 0
-19 33 65 200 0
-19 33 65 -200 0
-23 -14 -68 201 0
-23 -14 -68 -201 0
-55 -69 73 202 0
-55 -69 73 -202 0
-71 -39 19 203 0
-71 -39 19 -203 0
-16 61 30 204 0
-16 61 30 -204 0
20 48 -42 205 0
20 48 -42 -205 0
17 50 -3 206 0
17 50 -3 -206 0
-1 -68 -66 207 0
-1 -68 -66 -207 0
2 -48 -20 208 0
2 -48 -20 -208 0
28 58 11 209 0
28 58 11 -209 0
22 60 -61 210 0
22 60 -61 -210 0
-48 -63 -53 211 0
-48 -63 -53 -211 0
-58 -67 39 212 0
-58 -67 39 -212 0
57 17 -3 213 0
57 17 -3 -213 0
-58 -57 69 214 0
-58 -57 69 -214 0
5 -53 -74 215 0
5 -53 -74 -215 0
-10 -52 -26 216 0
-10 -52 -26 -216 0
48 43 -38 217 0
48 43 -38 -217 0
10 -29 -42 218 0
10 -29 -42 -218 0
-68 39 23 219 0
-68 39 23 -219 0
-75 -27 -68 220 0
-75 -27 -68 -220 0
-47 -72 35 221 0
-47 -72 35 -221 0
72 -36 -54 222 0
72 -36 -54 -222 0
-74 73 19 223 0
-74 73 19 -223 0
7 -75 -39 224 0
7 -75 -39 -224 0
44 -60 -12 225 0
44 -60 -12 -225 0
-19 30 -71 226 0
-19 30 -71 -226 0
-64 -24 18 227 0
-64 -24 18 -227 0
-32 58 3 228 0
-32 58 3 -228 0
50 -30 -10 229 0
50 -30 -10 -229 0
74 -27 -56 230 0
74 -27 -56 -230 0
9 -8 69 231 0
9 -8 69 -231 0
62 49 45 232 0
62 49 45 -232 0
10 46 13 233 0
10 46 13 -233 0
70 -63 32 234 0
70 -63 32 -234 0
7 -73 -8 235 0
7 -73 -8 -235 0
25 -68 -40 236 0
25 -68 -40 -236 0
15 -26 -30 237 0
15 -26 -30 -237 0
-28 11 68 238 0
-28 11 68 -238 0
62 26 -13 239 0
62 26 -13 -239 0
-47 -40 -55 240 0
-47 -40 -55 -240 0
-26 6 33 241 0
-26 6 33 -241 0
52 -49 37 242 0
52 -49 37 -242 0
-64 -20 -13 243 0
-64 -20 -13 -243 0
7 -46 69 244 0
7 -46 69 -244 0
-2 36 -66 245 0
-2 36 -66 -245 0
-21 41 52 246 0
-21 41 52 -246 0
64 8 -60 247 0
64 8 -60 -247 0
-27 -3 -71 248 0
-27 -3 -71 -248 0
-7 65 25 249 0
-7 65 25 -249 0
26 -10 -51 250 0
26 -10 -51 -250 0
-63 -12 -32 251 0
-63 -12 -32 -251 0
50 54 71 252 0
50 54 71 -252 0
10 -30 -12 253 0
10 -30 -12 -253 0
-59 -75 9 254 0
-59 -75 9 -254 0
-25 -1 -74 255 0
-25 -1 -74 -255 0
-29 -2 22 256 0
-29 -2 22 -256 0
43 -45 6 257 0
43 -45 6 -257 0
12 -3 27 258 0
12 -3 27 -258 0
75 -71 -5 259 0
75 -71 -5 -259 0
32 -20 -72 260 0
32 -20 -72 -260 0
-21 15 -64 261 0
-21 15 -64 -261 0
-52 -51 -25 262 0
-52 -51 -25 -262 0
72 64 -1 263 0
72 64 -1 -263 0
-44 5 -67 264 0
-44 5 -67 -264 0
-44 -45 -7 265 0
-44 -45 -7 -265 0
27 -21 7 266 0
27 -21 7 -266 0
71 39 -66 267 0
71 39 -66 -267 0
18 -16 32 268 0
18 -16 32 -268 0
14 -7 -41 269 0
14 -7 -41 -269 0
-67 -24 23 270 0
-67 -24 23 -270 0
-65 15 43 271 0
-65 15 43 -271 0
12 -26 68 272 0
12 -26 68 -272 0
45 63 -29 273 0
45 63 -29 -273 0
38 19 -74 274 0
38 19 -74 -274 0
56 16 -1 275 0
56 16 -1 -275 0
-26 -3 4 276 0
-26 -3 4 -276 0
23 10 61 277 0
23 10 61 -277 0
-28 -57 19 278 0
-28 -57 19 -278 0
-48 21 -43 279 0
-48 21 -43 -279 0
24 5 7 280 0
24 5 7 -280 0
13 33 22 281 0
13 33 22 -281 0
51 -49 -31 282 0
51 -49 -31 -282 0
67 -18 24 283 0
67 -18 24 -283 0
35 46 -27 284 0
35 46 -27 -284 0
69 -40 -54 285 0
69 -40 -54 -285 0
-20 1 -19 286 0
-20 1 -19 -286 0
62 68 19 287 0
62 68 19 -287 0
60 20 26 288 0
60 20 26 -288 0
-14 -64 70 289 0
-14 -64 70 -289 0
-15 -60 -50 290 0
-15 -60 -50 -290 0
-54 -5 -39 291 0
-54 -5 -39 -291 0
-43 -33 48 292 0
-43 -33 48 -292 0
71 -34 -21 293 0
71 -34 -21 -293 0
-46 56 39 294 0
-46 56 39 -294 0
52 35 -13 295 0
52 35 -13 -295 0
64 7 -2 296 0
64 7 -2 -296 0
-7 47 -5 297 0
-7 47 -5 -297 0
55 -30 -14 298 0
55 -30 -14 -298 0
50 -21 -36 299 0
50 -21 -36 -299 0
-43 -38 -15 300 0
-43 -38 -15 -300 0
53 -49 55 301 0
53 -49 55 -301 0
-11 -25 31 302 0
-11 -25 31 -302 0
-45 -13 24 303 0
-45 -13 24 -303 0
20 -10 38 304 0
20 -10 38 -304 0
75 33 55 305 0
75 33 55 -305 0
74 50 -12 306 0
74 50 -12 -306 0
13 52 69 307 0
13 52 69 -307 0
47 49 27 308 0
47 49 27 -308 0
-35 -46 68 309 0
-35 -46 68 -309 0
-68 74 -44 310 0
-68 74 -44 -310 0
5 19 -18 311 0
5 19 -18 -311 0
-54 33 -22 312 0
-54 33 -22 -312 0
50 7 -30 313 0
50 7 -30 -313 0
31 -57 37 314 0
31 -57 37 -314 0
34 41 1 315 0
34 41 1 -315 0
-46 18 -39 316 0
-46 18 -39 -316 0
-33 -12 -17 317 0
-33 -12 -17 -317 0
-37 34 58 318 0
-37 34 58 -318 0
57 66 61 319 0
57 66 61 -319 0
20 -47 1 320 0
20 -47 1 -320 0
40 19 -31 321 0
40 19 -31 -321 0
62 40 -75 322 0
62 40 -75 -322 0
55 -56 -17 323 0
55 -56 -17 -323 0
41 -28 -42 324 0
41 -28 -42 -324 0
-60 65 -26 325 0
-60 65 -26 -325 0
73 -50 18 326 0
73 -50 18 -326 0
17 -39 64 327 0
17 -39 64 -327 0
75 -21 64 328 0
75 -21 64 -328 0
68 -23 63 329 0
68 -23 63 -329 0
-13 33 23 330 0
-13 33 23 -330 0
-37 -16 -7 331 0
-37 -16 -7 -331 0
-3 60 -22 332 0
-3 60 -22 -332 0
-75 1 -9 333 0
-75 1 -9 -333 0
23 -10 -13 334 0
23 -10 -13 -334 0
-42 55 18 335 0
-42 55 18 -335 0
22 54 51 336 0
22 54 51 -336 0
11 35 3 337 0
11 35 3 -337 0
21 25 5 338 0
21 25 5 -338 0
20 -35 -32 339 0
20 -35 -32 -339 0
19 11 -54 340 0
19 11 -54 -340 0
-72 -22 50 341 0
-72 -22 50 -341 0
-65 60 -41 342 0
-65 60 -41 -342 0
72 -38 16 343 0
72 -38 16 -343 0
-24 -12 63 344 0
-24 -12 63 -344 0
54 63 -42 345 0
54 63 -42 -345 0
29 -20 -64 346 0
29 -20 -64 -346 0
-9 -56 -23 347 0
-9 -56 -23 -347 0
-40 -45 -3 348 0
-40 -45 -3 -348 0
-8 -69 -6 349 0
-8 -69 -6 -349 0
-27 -38 69 350 0
-27 -38 69 -350 0
12 -6 -25 351 0
12 -6 -25 -351 0
-23 53 -10 352 0
-23 53 -10 -352 0
37 -70 -53 353 0
37 -70 -53 -353 0
25 33 53 354 0
25 33 53 -354 0
-47 33 -65 355 0
-47 33 -65 -355 0
2 -28 -57 356 0
2 -28 -57 -356 0
14 -65 -30 357 0
14 -65 -30 -357 0
-73 -23 50 358 0
-73 -23 50 -358 0
-22 65 -47 359 0
-22 65 -47 -359 0
26 57 10 360 0
26 57 10 -360 0
-66 -24 53 361 0
-66 -24 53 -361 0
-25 63 -9 362 0
-25 63 -9 -362 0
35 -9 -18 363 0
35 -9 -18 -363 0
-22 5 -47 364 0
-22 5 -47 -364 0
-46 -29 -38 365 0
-46 -29 -38 -365 0
-7 35 -9 366 0
-7 35 -9 -366 0
3 30 -45 367 0
3 30 -45 -367 0
6 -43 -63 368 0
6 -43 -63 -368 0
-5 -73 -51 369 0
-5 -73 -51 -369 0
-32 37 -8 370 0
-32 37 -8 -370 0
-54 24 11 371 0
-54 24 11 -371 0
44 10 -46 372 0
44 10 -46 -372 0
-69 -27 -23 373 0
-69 -27 -23 -373 0
27 54 -71 374 0
27 54 -71 -374 0
-56 -61 -23 375 0
-56 -61 -23 -375 0
-40 34 -64 376 0
-40 34 -64 -376 0
67 65 5 377 0
67 65 5 -377 0
-17 -71 53 378 0
-17 -71 53 -378 0
37 4 5 379 0
37 4 5 -379 0
-19 -62 -20 380 0
-19 -62 -20 -380 0
-7 -15 -33 381 0
-7 -15 -33 -381 0
-65 57 -43 382 0
-65 57 -43 -382 0
-21 -37 41 383 0
-21 -37 41 -383 0
24 -37 21 384 0
24 -37 21 -384 0
62 -14 -12 385 0
62 -14 -12 -385 0
5 -62 -1 386 0
5 -62 -1 -386 0
-16 -46 -49 387 0
-16 -46 -49 -387 0
-28 -62 29 388 0
-28 -62 29 -388 0
10 8 -66 389 0
10 8 -66 -389 0
-56 21 -73 390 0
-56 21 -73 -390 0
-54 -31 39 391 0
-54 -31 39 -391 0
46 -9 66 392 0
46 -9 66 -392 0
11 18 -39 393 0
11 18 -39 -393 0
-21 -9 -58 394 0
-21 -9 -58 -394 0
31 64 40 395 0
31 64 40 -395 0
-1 -46 56 396 0
-1 -46 56 -396 0
-25 47 67 397 0
-25 47 67 -397 0
54 -55 -41 398 0
54 -55 -41 -398 0
-10 -11 51 399 0
-10 -11 51 -399 0
-34 -17 8 400 0
-34 -17 8 -400 0
401 402 403 404 0
401 402 403 -404 0
401 402 -403 404 0
401 402 -403 -404 0
401 -402 403 404 0
401 -402 403 -404 0
401 -402 -403 404 0
401 -402 -403 -404 0
-401 402 403 404 0
-401 402 403 -404 0
-401 402 -403 404 0
-401 402 -403 -404 0
-401 -402 403 404 0
-401 -402 403 -404 0
-401 -402 -403 404 0
-401 -402 -403 -404 0
405 406 407 408 0
405 406 407 -408 0
405 406 -407 408 0
405 406 -407 -408 0
405 -406 407 408 0
405 -406 407 -408 0
405 -406 -407 408 0
405 -406 -407 -408 0
-405 406 407 408 0
-405 406 407 -408 0
-405 406 -407 408 0
-405 406 -407 -408 0
-405 -406 407 408 0
-405 -406 407 -408 0
-405 -406 -407 408 0
-405 -406 -407 -408 0
409 410 411 412 0
409 410 411 -412 0
409 410 -411 412 0
409 410 -411 -412 0
409 -410 411 412 0
409 -410 411 -412 0
409 -410 -411 412 0
409 -410 -411 -412 0
-409 410 411 412 0
-409 410 411 -412 0
-409 410 -411 412 0
-409 410 -411 -412 0
-409 -410 411 412 0
-409 -410 411 -412 0
-409 -410 -411 412 0
-409 -410 -411 -412 0
